(set-info :Origin "This instance was generated by: BanditFuzz-- an RL fuzzer for SMT solvers" )
(set-info :Author "Joe Scott, Fed Mora, Vijay Ganesh" )
(set-info :Contact "Joe Scott, joseph.scott@uwaterloo.ca")
(set-logic QF_BV)
(declare-const bool_0 Bool)
(declare-const bool_1 Bool)
(declare-const bool_2 Bool)
(declare-const bool_3 Bool)
(declare-const bool_4 Bool)
(declare-const bv_0 (_ BitVec 32))
(declare-const bv_1 (_ BitVec 32))
(declare-const bv_2 (_ BitVec 32))
(declare-const bv_3 (_ BitVec 32))
(declare-const bv_4 (_ BitVec 32))
(assert (=> (not (and false false)) (not (not false))))
(assert (=> (bvsge (bvsrem #x392e8ab0  bv_0) (bvmul bv_4 #x936829dc )) (bvsge (bvxnor bv_3 #x9fa76e88 ) (bvudiv bv_3 #x35b87899 ))))
(assert (or (bvuge (bvmul bv_2 bv_0) (bvsrem bv_0 #x7eae4ac8 )) (bvuge (bvudiv bv_1 #x5d22e53b ) (bvurem #xdc12a9b0  bv_4))))
(assert (bvugt (bvand (bvshl bv_1 bv_3) (bvsdiv #x66a7b7ec  bv_2)) (bvurem (bvsdiv #xe06c8234  bv_4) (bvsrem #xfb5a071f  bv_0))))
(assert (bvsle (bvxnor (bvurem #x487b7f08  bv_3) (bvudiv bv_1 #xc4ceb453 )) (bvxor (bvor #x7a5d405f  bv_0) (bvnor bv_2 bv_0))))
(check-sat)
(exit)
